zaligvinder/models/all_counting_bench/automatarklen/automatark/instance494.smt2
(set-logic QF_SLIA)
(set-option :produce-models true)
(declare-const X String)
; /\/AES\d+O\d+\.jsp\?[a-z0-9=\u{2b}\u{2f}]{20}/iU
(assert (not (str.in_re X (re.++ (str.to_re "//AES") (re.+ (re.range "0" "9")) (str.to_re "O") (re.+ (re.range "0" "9")) (str.to_re ".jsp?") ((_ re.loop 20 20) (re.union (re.range "a" "z") (re.range "0" "9") (str.to_re "=") (str.to_re "+") (str.to_re "/"))) (str.to_re "/iU\u{0a}")))))
; ^[a-zA-Z0-9\u{20}'\.]{8,64}[^\s]$
(assert (not (str.in_re X (re.++ ((_ re.loop 8 64) (re.union (re.range "a" "z") (re.range "A" "Z") (re.range "0" "9") (str.to_re " ") (str.to_re "'") (str.to_re "."))) (re.union (str.to_re " ") (str.to_re "\u{09}") (str.to_re "\u{0a}") (str.to_re "\u{0c}") (str.to_re "\u{0d}")) (str.to_re "\u{0a}")))))
; [0](\d{9})|([0](\d{2})( |-)((\d{3}))( |-)(\d{4}))|[0](\d{2})( |-)(\d{7})
(assert (not (str.in_re X (re.union (re.++ (str.to_re "0") ((_ re.loop 9 9) (re.range "0" "9"))) (re.++ (str.to_re "0") ((_ re.loop 2 2) (re.range "0" "9")) (re.union (str.to_re " ") (str.to_re "-")) ((_ re.loop 3 3) (re.range "0" "9")) (re.union (str.to_re " ") (str.to_re "-")) ((_ re.loop 4 4) (re.range "0" "9"))) (re.++ (str.to_re "0") ((_ re.loop 2 2) (re.range "0" "9")) (re.union (str.to_re " ") (str.to_re "-")) ((_ re.loop 7 7) (re.range "0" "9")) (str.to_re "\u{0a}"))))))
; tv\x2E180solutions\x2EcomGirlFriendHost\x3A
(assert (not (str.in_re X (str.to_re "tv.180solutions.comGirlFriendHost:\u{0a}"))))
(assert (> (str.len X) 10))
(check-sat)
